835 735
1670 1470
3340 2940
1087 987
1087 987
517 417
1034 834
2068 1668
1034 834
630 530
1260 1060
1260 1060
1071 971
1165 65
330 130
495 195
176 76
663 563
1326 1126
1326 1126
984 884
1968 1768
2952 2652
829 729
1658 1458
3316 2916
829 729
663 563
1326 1126
1989 1689
1086 986
1086 986
639 539
1278 1078
2556 2156